(set-logic QF_S)
(declare-fun var0 () String)
(declare-fun var1 () String)
(declare-fun var2 () String)
(declare-fun var3 () String)
(declare-fun var4 () Int)
(declare-fun var5 () Int)
(declare-fun var6 () Int)
(declare-fun var7 () Int)
(assert (str.suffixof (str.replace var0 var1 var2) (str.replace var3 var3 var0)))
(assert (>= (str.len (str.substr var2 var4 var5)) (str.len (str.at var3 158))))
(assert (str.contains var1 var1))
(assert (str.suffixof (str.replace (str.at var1 var6) (str.substr var0 var7 var7) (str.at var2 var7)) (str.replace (str.at var1 var5) (str.substr var1 var6 var6) (str.substr var3 var4 var5))))
(check-sat)